c Instancia generada aleatoriamente
p edge 50 606
e 1 2
e 1 5
e 1 9
e 1 11
e 1 12
e 1 16
e 1 17
e 1 18
e 1 19
e 1 20
e 1 22
e 1 23
e 1 25
e 1 26
e 1 27
e 1 33
e 1 36
e 1 37
e 1 40
e 1 42
e 1 43
e 1 45
e 1 47
e 1 50
e 2 6
e 2 8
e 2 9
e 2 11
e 2 12
e 2 13
e 2 14
e 2 15
e 2 16
e 2 17
e 2 19
e 2 22
e 2 24
e 2 26
e 2 27
e 2 28
e 2 30
e 2 34
e 2 38
e 2 39
e 2 41
e 2 42
e 2 44
e 2 47
e 2 49
e 2 50
e 3 6
e 3 10
e 3 11
e 3 14
e 3 16
e 3 23
e 3 25
e 3 26
e 3 28
e 3 30
e 3 31
e 3 32
e 3 34
e 3 37
e 3 39
e 3 41
e 3 43
e 3 45
e 3 49
e 4 5
e 4 6
e 4 9
e 4 14
e 4 15
e 4 20
e 4 21
e 4 22
e 4 27
e 4 28
e 4 29
e 4 32
e 4 33
e 4 36
e 4 38
e 4 39
e 4 42
e 4 44
e 4 46
e 4 47
e 5 10
e 5 11
e 5 14
e 5 20
e 5 22
e 5 23
e 5 24
e 5 25
e 5 28
e 5 30
e 5 31
e 5 32
e 5 34
e 5 38
e 5 39
e 5 41
e 5 44
e 5 45
e 5 46
e 5 47
e 5 48
e 5 50
e 6 7
e 6 12
e 6 14
e 6 15
e 6 17
e 6 19
e 6 20
e 6 24
e 6 26
e 6 27
e 6 29
e 6 30
e 6 31
e 6 33
e 6 34
e 6 35
e 6 38
e 6 42
e 6 45
e 6 47
e 6 50
e 7 10
e 7 16
e 7 17
e 7 18
e 7 19
e 7 20
e 7 21
e 7 24
e 7 25
e 7 27
e 7 32
e 7 33
e 7 35
e 7 36
e 7 37
e 7 40
e 7 44
e 7 45
e 7 47
e 7 48
e 7 49
e 7 50
e 8 11
e 8 15
e 8 16
e 8 17
e 8 19
e 8 20
e 8 21
e 8 23
e 8 24
e 8 25
e 8 27
e 8 28
e 8 30
e 8 31
e 8 37
e 8 39
e 8 41
e 8 42
e 8 43
e 8 46
e 8 47
e 8 48
e 8 49
e 8 50
e 9 11
e 9 12
e 9 14
e 9 15
e 9 19
e 9 21
e 9 22
e 9 23
e 9 28
e 9 29
e 9 30
e 9 32
e 9 33
e 9 34
e 9 37
e 9 38
e 9 41
e 9 42
e 9 44
e 9 45
e 9 49
e 10 12
e 10 16
e 10 18
e 10 21
e 10 22
e 10 26
e 10 28
e 10 29
e 10 31
e 10 33
e 10 36
e 10 37
e 10 38
e 10 40
e 10 41
e 10 42
e 10 44
e 10 45
e 10 46
e 10 47
e 10 50
e 11 12
e 11 14
e 11 16
e 11 18
e 11 19
e 11 24
e 11 25
e 11 28
e 11 32
e 11 33
e 11 34
e 11 35
e 11 36
e 11 37
e 11 38
e 11 39
e 11 43
e 11 44
e 11 45
e 11 46
e 11 48
e 11 49
e 12 18
e 12 19
e 12 20
e 12 22
e 12 23
e 12 26
e 12 27
e 12 34
e 12 35
e 12 36
e 12 38
e 12 40
e 12 42
e 12 43
e 12 47
e 12 48
e 13 20
e 13 22
e 13 23
e 13 24
e 13 25
e 13 26
e 13 27
e 13 30
e 13 32
e 13 37
e 13 40
e 13 41
e 13 43
e 13 44
e 13 46
e 13 48
e 13 50
e 14 17
e 14 21
e 14 22
e 14 23
e 14 25
e 14 26
e 14 27
e 14 28
e 14 30
e 14 31
e 14 32
e 14 33
e 14 34
e 14 35
e 14 40
e 14 42
e 14 43
e 14 44
e 14 45
e 14 50
e 15 17
e 15 25
e 15 32
e 15 33
e 15 34
e 15 35
e 15 36
e 15 37
e 15 38
e 15 41
e 15 43
e 15 44
e 15 46
e 15 47
e 15 49
e 16 17
e 16 18
e 16 22
e 16 24
e 16 25
e 16 29
e 16 30
e 16 31
e 16 32
e 16 37
e 16 38
e 16 40
e 16 41
e 16 44
e 16 46
e 16 47
e 16 48
e 16 50
e 17 18
e 17 19
e 17 22
e 17 23
e 17 25
e 17 26
e 17 27
e 17 31
e 17 32
e 17 33
e 17 35
e 17 36
e 17 38
e 17 39
e 17 41
e 17 42
e 17 44
e 17 45
e 17 47
e 17 49
e 18 20
e 18 22
e 18 23
e 18 27
e 18 28
e 18 30
e 18 33
e 18 36
e 18 37
e 18 41
e 18 42
e 18 43
e 18 45
e 18 48
e 18 49
e 18 50
e 19 20
e 19 21
e 19 25
e 19 26
e 19 27
e 19 30
e 19 31
e 19 32
e 19 34
e 19 36
e 19 37
e 19 38
e 19 44
e 19 49
e 19 50
e 20 21
e 20 23
e 20 25
e 20 26
e 20 28
e 20 31
e 20 32
e 20 34
e 20 37
e 20 39
e 20 47
e 20 48
e 20 49
e 21 22
e 21 24
e 21 25
e 21 26
e 21 27
e 21 28
e 21 29
e 21 30
e 21 33
e 21 37
e 21 39
e 21 44
e 21 45
e 21 46
e 21 48
e 21 49
e 22 24
e 22 25
e 22 26
e 22 27
e 22 33
e 22 35
e 22 36
e 22 37
e 22 38
e 22 41
e 22 42
e 22 43
e 22 45
e 22 50
e 23 25
e 23 26
e 23 27
e 23 28
e 23 29
e 23 31
e 23 32
e 23 33
e 23 35
e 23 36
e 23 37
e 23 38
e 23 40
e 23 41
e 23 45
e 23 46
e 23 47
e 23 48
e 23 50
e 24 27
e 24 30
e 24 33
e 24 35
e 24 37
e 24 38
e 24 39
e 24 41
e 24 44
e 24 45
e 24 46
e 24 48
e 24 50
e 25 29
e 25 30
e 25 31
e 25 37
e 25 41
e 25 42
e 25 48
e 25 49
e 25 50
e 26 27
e 26 29
e 26 31
e 26 34
e 26 36
e 26 39
e 26 41
e 26 42
e 26 43
e 26 44
e 26 47
e 26 48
e 26 49
e 26 50
e 27 28
e 27 32
e 27 35
e 27 36
e 27 38
e 27 40
e 27 41
e 27 45
e 27 49
e 27 50
e 28 30
e 28 31
e 28 33
e 28 34
e 28 36
e 28 38
e 28 39
e 28 44
e 28 47
e 28 49
e 28 50
e 29 30
e 29 39
e 29 40
e 29 41
e 29 42
e 29 44
e 29 46
e 29 47
e 29 48
e 29 49
e 29 50
e 30 32
e 30 34
e 30 36
e 30 37
e 30 38
e 30 39
e 30 42
e 30 43
e 30 44
e 30 45
e 30 47
e 30 50
e 31 33
e 31 34
e 31 37
e 31 38
e 31 45
e 31 47
e 32 33
e 32 34
e 32 37
e 32 38
e 32 39
e 32 40
e 32 44
e 32 45
e 32 49
e 33 34
e 33 37
e 33 39
e 33 41
e 33 47
e 34 37
e 34 42
e 34 43
e 34 44
e 34 45
e 34 47
e 34 49
e 35 38
e 35 44
e 35 50
e 36 37
e 36 39
e 36 41
e 36 47
e 36 48
e 37 38
e 37 39
e 37 40
e 37 41
e 37 43
e 37 44
e 37 46
e 37 48
e 37 49
e 38 42
e 38 43
e 38 44
e 38 45
e 38 47
e 38 48
e 38 49
e 38 50
e 39 40
e 39 41
e 39 44
e 39 46
e 39 50
e 40 41
e 40 42
e 40 47
e 40 48
e 41 43
e 41 44
e 41 45
e 41 47
e 41 48
e 41 49
e 42 45
e 42 47
e 42 49
e 42 50
e 43 45
e 43 50
e 44 45
e 44 47
e 44 48
e 44 49
e 44 50
e 45 46
e 46 48
e 46 49
e 46 50
e 47 48
e 47 50
e 49 50
